
        $ From http://www.csplib.org/Problems/prob009/data/helmut.pdf
        $ Problem number 70
        $ Sequence length : 25
        language ESSENCE' 1.0
        letting sizemaster be 286
        letting sizes be sequence(1,4,5,7,10,12,15,16,20,23,28,30,32,33,35,37,53,54,64,68,74,79,80,133,153)
        